HFSDDW
15	6	2
0	37	1	73
0	4	1	75
0	57	1	75
0	85	1	18
0	59	1	95
0	95	1	91
0	80	1	25
0	39	1	32
0	15	1	61
0	63	1	41
0	62	1	37
0	83	1	15
0	50	1	11
0	22	1	16
0	30	1	75
LBCmax: 275
RELDUE
-1	250	3	3
-1	115	4	5
-1	76	2	2
-1	184	9	1
-1	30	3	9
-1	95	9	9
-1	277	9	3
-1	132	5	5
-1	219	7	8
-1	277	8	2
-1	283	6	7
-1	293	3	3
-1	278	2	4
-1	233	7	9
-1	183	7	5
DDW
215	285
104	126
74	78
162	206
29	31
79	111
230	324
115	149
212	226
241	313
235	331
275	311
228	328
205	261
181	185
